numberOfDrones = 4; % Number of drones
numberOfRechargePoints = 2; % Number of recharge points
numberOfUsersClusters = 14; % Number of user clusters
numberOfHAPSs = 1;
M1 = 100000; % Large enough value
XY = 7;
CellDist = 500;

% Data
RHAPS = 5;
Ri = [2, 2, 2, 2]; % Coverage radius of drones
Bi = [20, 20, 20, 20]; % Battery capacity of drones
Ci = [2, 2, 2, 2]; % Consumption per unit distance of drones
NUsers = [4, 9, 2, 1, 6, 2, 1, 3, 2, 2, 8, 2, 1, 2]; % Number of users in clusters
UserClusterPosition = [| 1, 1
       | 1, 7
       | 2, 1
       | 2, 2
       | 2, 3
       | 2, 7
       | 4, 6
       | 6, 5
       | 6, 6
       | 6, 7
       | 7, 2
       | 7, 3
       | 7, 5
       | 7, 7 |]; % Position of user clusters
